% Same as example 1, but here two additional tool changes has been added

nbrTasks = 25;
nbrMachines = 2;
nbrTools = 2;
names = ["Take top","Put top in fixture","Take button","Put button in top","Take top-button from fixture","Angle top-button","Lift top-button, hold top-button","Lift top-button, support","Turn top-button","Take ring","Mount ring on top-button, hold","Mount ring on top-button, mount","Fixate top-button-ring","Put top-button-ring in top_tray","Change to bottom-grabber tool, change_1","Take top-button-ring from top_tray","Take bottom","Put bottom in fixture","Take switch","Mount switch in bottom","Take bottom-switch","Put bottom-switch on table","Put top-button-ring on bottom-switch","Change to bottom-grabber tool, change_2","Change to regular-grabber tool"];

duration = [1,2,1,5,1,1,1,1,4,2,52,52,3,1,12,1,1,2,1,3,0,1,3,12,12];

% Trays
% 1: Top tray
% 2: Button tray
% 3: Ring tray
% 4: Bottom tray
% 5: Switch tray
tray = [1,0,2,0,0,0,0,0,0,3,0,0,0,1,0,1,4,0,5,0,0,0,0,0,0];

% Fixtures
% 1: Front fixture
fixture = [0,1,0,1,1,1,0,0,0,0,0,0,1,0,0,0,0,1,0,1,1,0,0,0,0];

% Components
% 1: Top
% 2: Button
% 3: Ring
% 4: Bottom
% 5: Switch
% 6: top-button
% 7: top-button-ring
% 8: bottom-switch
component = [|1,1,2,2,6,6,6,6,6,3,3,3,7,7,0,7,4,4,5,4,8,8,7,0,0|
	      0,0,0,1,0,0,0,0,0,0,6,6,0,0,0,0,0,0,0,5,0,0,8,0,0|];
nbrComponents = 5;
maxComponentsUsed = 2;

component_created = [0,0,0,6,0,0,0,0,0,0,7,7,0,0,0,0,0,0,0,8,0,0,0,0,0];

% Operations
% 1: Angle top-button
% 2: Lift top-button, hold top-button
% 3: Lift top-button, support
% 4: Turn top-button
% 5: Mount ring on top-button, hold
% 6: Mount ring on top-button, mount
% 7: Fixate top-button-ring
operation = [0,0,0,0,0,1,2,3,4,0,5,6,7,0,0,0,0,0,0,0,0,0,0,0,0];

maxConcurrentTasks = 2;
nbrConcurrentGroups = 2;
concurrentTasks =  [|7,8
		    |11,12|];

% Individual dependencies
dependencies = [|0,1,0,0,0,0,0,0,0,0,0,0,0,0,0,0,0,0,0,0,0,0,0,0,0|
0,0,0,1,0,0,0,0,0,0,0,0,0,0,0,0,0,0,0,0,0,0,0,0,0|
0,0,0,1,0,0,0,0,0,0,0,0,0,0,0,0,0,0,0,0,0,0,0,0,0|
0,0,0,0,1,0,0,0,0,0,0,0,0,0,0,0,0,0,0,0,0,0,0,0,0|
0,0,0,0,0,1,0,0,0,0,0,0,0,0,0,0,0,0,0,0,0,0,0,0,0|
0,0,0,0,0,0,1,1,0,0,0,0,0,0,0,0,0,0,0,0,0,0,0,0,0|
0,0,0,0,0,0,0,0,1,0,0,0,0,0,0,0,0,0,0,0,0,0,0,0,0|
0,0,0,0,0,0,0,0,1,0,0,0,0,0,0,0,0,0,0,0,0,0,0,0,0|
0,0,0,0,0,0,0,0,0,0,1,1,0,0,0,0,0,0,0,0,0,0,0,0,0|
0,0,0,0,0,0,0,0,0,0,1,1,0,0,0,0,0,0,0,0,0,0,0,0,0|
0,0,0,0,0,0,0,0,0,0,0,0,1,0,0,0,0,0,0,0,0,0,0,0,0|
0,0,0,0,0,0,0,0,0,0,0,0,1,0,0,0,0,0,0,0,0,0,0,0,0|
0,0,0,0,0,0,0,0,0,0,0,0,0,1,0,0,0,0,0,0,0,0,0,0,0|
0,0,0,0,0,0,0,0,0,0,0,0,0,0,0,1,0,0,0,0,0,0,0,0,0|
0,0,0,0,0,0,0,0,0,0,0,0,0,0,0,0,0,0,0,0,0,0,0,0,0|
0,0,0,0,0,0,0,0,0,0,0,0,0,0,0,0,0,0,0,0,0,0,1,0,0|
0,0,0,0,0,0,0,0,0,0,0,0,0,0,0,0,0,1,0,0,0,0,0,0,0|
0,0,0,0,0,0,0,0,0,0,0,0,0,0,0,0,0,0,0,1,0,0,0,0,0|
0,0,0,0,0,0,0,0,0,0,0,0,0,0,0,0,0,0,0,1,0,0,0,0,0|
0,0,0,0,0,0,0,0,0,0,0,0,0,0,0,0,0,0,0,0,1,0,0,0,0|
0,0,0,0,0,0,0,0,0,0,0,0,0,0,0,0,0,0,0,0,0,1,0,0,0|
0,0,0,0,0,0,0,0,0,0,0,0,0,0,0,0,0,0,0,0,0,0,1,0,0|
0,0,0,0,0,0,0,0,0,0,0,0,0,0,0,0,0,0,0,0,0,0,0,0,0|
0,0,0,0,0,0,0,0,0,0,0,0,0,0,0,0,0,0,0,0,0,0,0,0,0|
0,0,0,0,0,0,0,0,0,0,0,0,0,0,0,0,0,0,0,0,0,0,0,0,0|];

orderedGroups = 8;
maxOrderedLength = 7;
order = [|
1,2,0,0,0,0,0|
3,4,0,0,0,0,0|
10,12,0,0,0,0,0|
5,6,7,9,11,13,14|
16,23,0,0,0,0,0|
17,18,0,0,0,0,0|
19,20,0,0,0,0,0|
21,22,0,0,0,0,0|];

resources = [1,1,1,1,1,1,1,1,1,1,1,1,1,1,1,1,1,1,1,1,1,1,1,1,1];

% Coords fromX,fromY,toX,toY
coords = [|7,9,7,9
	  |4,9,4,9
	  |8,2,8,2
	  |5,2,5,2
	  |8,2,8,2
	  |8,2,8,2
	  |8,2,8,2
	  |8,2,7,9
	  |8,2,7,9
	  |7,9,7,9
	  |14,9,14,9
	  |7,9,7,9
	  |7,9,7,9
	  |9,2,9,2
	  |4,9,4,9
	  |8,12,8,12
	  |4,9,4,9
	  |11,9,11,9
	  |8,2,8,2
	  |12,5,12,5
	  |8,2,8,2
	  |8,2,8,2
	  |10,2,10,2
	  |10,2,10,2
	  |8,12,8,12
	  |8,12,8,12|];

tools_needed = [1,1,1,1,1,1,1,0,1,1,1,1,1,1,0,1,2,2,2,2,2,2,1,0,0];
tool_changes = 3;
changes_tool = [|15,24,25|
		  2,2,1|];
default_tool = [1,1];
